CLT01
Position Depot: Center
Horizon for Depot: Large
Position of customers: Cluster
Distribution of the demand: Small
Width of time windows: Tight
Distribution of the service: Small

VEHICLE 
NUMBER 	 CAPACITY 
 12 	 	 30 
 
CUSTOMER
CUST NO. 	 XCOORD.  	 YCOORD. 	 DEMAND 	 READY TIME 	 DUE DATE 	 SERVICE TIME 
 0 	 	 500 	 	 500 	 	 0 	 	 0 	 	 2510 	 	 0 
  1 	 	 469 	 	 445 	 	 9 	 	 447 	 	 530 	 	 74 
  2 	 	 455 	 	 156 	 	 8 	 	 271 	 	 399 	 	 64 
  3 	 	 262 	 	 780 	 	 10 	 	 1538 	 	 1604 	 	 90 
  4 	 	 21 	 	 736 	 	 6 	 	 1298 	 	 1486 	 	 86 
  5 	 	 499 	 	 199 	 	 6 	 	 154 	 	 331 	 	 55 
  6 	 	 525 	 	 424 	 	 8 	 	 1717 	 	 1790 	 	 60 
  7 	 	 325 	 	 732 	 	 6 	 	 1343 	 	 1399 	 	 78 
  8 	 	 486 	 	 125 	 	 5 	 	 359 	 	 412 	 	 64 
  9 	 	 487 	 	 91 	 	 9 	 	 1558 	 	 1750 	 	 98 
  10 	 	 283 	 	 751 	 	 9 	 	 2077 	 	 2183 	 	 55 
  11 	 	 431 	 	 438 	 	 8 	 	 1054 	 	 1108 	 	 64 
  12 	 	 505 	 	 481 	 	 10 	 	 520 	 	 671 	 	 59 
  13 	 	 438 	 	 109 	 	 9 	 	 2059 	 	 2196 	 	 75 
  14 	 	 239 	 	 798 	 	 5 	 	 487 	 	 653 	 	 100 
  15 	 	 504 	 	 142 	 	 6 	 	 293 	 	 393 	 	 64 
  16 	 	 503 	 	 290 	 	 10 	 	 345 	 	 443 	 	 72 
  17 	 	 430 	 	 524 	 	 9 	 	 50 	 	 150 	 	 73 
  18 	 	 240 	 	 745 	 	 9 	 	 1738 	 	 1815 	 	 63 
  19 	 	 10 	 	 687 	 	 8 	 	 1272 	 	 1339 	 	 76 
  20 	 	 257 	 	 718 	 	 9 	 	 1831 	 	 1919 	 	 91 
  21 	 	 462 	 	 13 	 	 6 	 	 1717 	 	 1783 	 	 81 
  22 	 	 511 	 	 112 	 	 8 	 	 1677 	 	 1813 	 	 94 
  23 	 	 333 	 	 854 	 	 10 	 	 1622 	 	 1785 	 	 89 
  24 	 	 244 	 	 773 	 	 6 	 	 1946 	 	 2006 	 	 64 
  25 	 	 471 	 	 104 	 	 10 	 	 1937 	 	 2073 	 	 90 
  26 	 	 534 	 	 50 	 	 10 	 	 1330 	 	 1390 	 	 95 
  27 	 	 453 	 	 468 	 	 5 	 	 126 	 	 242 	 	 99 
  28 	 	 399 	 	 399 	 	 6 	 	 1640 	 	 1777 	 	 58 
  29 	 	 211 	 	 799 	 	 7 	 	 1672 	 	 1841 	 	 97 
  30 	 	 69 	 	 704 	 	 8 	 	 1297 	 	 1352 	 	 99 
  31 	 	 473 	 	 128 	 	 5 	 	 360 	 	 410 	 	 91 
  32 	 	 32 	 	 664 	 	 9 	 	 498 	 	 689 	 	 58 
  33 	 	 348 	 	 661 	 	 8 	 	 2091 	 	 2248 	 	 78 
  34 	 	 177 	 	 766 	 	 7 	 	 407 	 	 460 	 	 87 
  35 	 	 374 	 	 764 	 	 8 	 	 359 	 	 490 	 	 91 
  36 	 	 192 	 	 766 	 	 7 	 	 1958 	 	 2154 	 	 50 
  37 	 	 168 	 	 737 	 	 6 	 	 1708 	 	 1766 	 	 99 
  38 	 	 321 	 	 780 	 	 9 	 	 470 	 	 637 	 	 82 
  39 	 	 472 	 	 557 	 	 5 	 	 1545 	 	 1638 	 	 56 
  40 	 	 500 	 	 212 	 	 7 	 	 1498 	 	 1668 	 	 92 
  41 	 	 460 	 	 444 	 	 10 	 	 368 	 	 531 	 	 100 
  42 	 	 444 	 	 155 	 	 5 	 	 1122 	 	 1288 	 	 72 
  43 	 	 454 	 	 193 	 	 6 	 	 284 	 	 341 	 	 94 
  44 	 	 422 	 	 176 	 	 6 	 	 325 	 	 385 	 	 99 
  45 	 	 275 	 	 765 	 	 5 	 	 2398 	 	 2465 	 	 64 
  46 	 	 72 	 	 709 	 	 9 	 	 1167 	 	 1327 	 	 70 
  47 	 	 478 	 	 208 	 	 6 	 	 1893 	 	 2051 	 	 67 
  48 	 	 75 	 	 739 	 	 8 	 	 2343 	 	 2427 	 	 88 
  49 	 	 608 	 	 123 	 	 5 	 	 378 	 	 431 	 	 96 
  50 	 	 413 	 	 412 	 	 5 	 	 2116 	 	 2204 	 	 73 
 